4 
5  17 44 
6  00 20 35 47 55 
7  02 10 17 25 32 40 47 55 
8  02 10 17 25 32 40 47 55 
9  02 10 20 29 37 44 52 59 
10  07 14 22 29 37 44 52 59 
11  07 14 22 29 37 44 52 59 
12  07 14 22 29 37 44 52 59 
13  07 15 23 31 38 46 53 
14  01 08 16 23 31 38 46 55 
15  03 10 18 25 33 40 48 55 
16  03 10 18 25 33 40 48 55 
17  03 10 18 25 33 40 48 55 
18  03 10 18 25 33 40 48 55 
19  03 10 18 25 33 40 48 56 
20  03 10 18 25 33 40 48 55 
21  03 10 18 25 40 55 
22  10 25 41 56 
23  11 24 39 
0 
